
Log started (V11.0.0) Wed May 14 22:45:12 2008

Tried aggregator 1 time.
Reduced MIP has 140 rows, 4001 columns, and 8040 nonzeros.
Presolve time =    0.03 sec.
Clique table members: 100.
MIP emphasis: balance optimality and feasibility.
MIP search method: dynamic search.
Parallel mode: none, using 1 thread.
Root relaxation solution time =    0.14 sec.

        Nodes                                         Cuts/
   Node  Left     Objective  IInf  Best Integer     Best Node    ItCnt     Gap

*     0+    0                        10987.0000      250.3986      423   97.72%
*     0+    0                          302.0000      250.3986      423   17.09%
      0     0      251.6426    73      302.0000      Fract: 5      444   16.67%
*     0+    0                          301.0000      251.6426      444   16.40%
      0     0      275.4275    81      301.0000   MIRcuts: 39     1288    8.50%
      0     0      275.4325    96      301.0000   MIRcuts: 34     1421    8.49%
      0     0      275.4333   110      301.0000      Cuts: 31     1533    8.49%
*     0+    0                          300.0000      275.4333     1533    8.19%
      0     2      275.4333   110      300.0000      275.4333     1533    8.19%
    100    85      276.0643   108      300.0000      276.0000     6990    8.00%
    200   151      276.0000    57      300.0000      276.0000    18242    8.00%
    300   218      276.0000    61      300.0000      276.0000    27518    8.00%
    400   285      276.0000    61      300.0000      276.0000    38407    8.00%
    500   342      276.0000    62      300.0000      276.0000    49212    8.00%

Cover cuts applied:  22
Flow cuts applied:  2
Mixed integer rounding cuts applied:  42
Zero-half cuts applied:  11
Gomory fractional cuts applied:  2

Solution pool: 4 solutions saved.

MIP - Integer optimal solution:  Objective = 3.0000000000e+002
Solution time =   25.03 sec.  Iterations = 50642  Nodes = 511 (348)


Incumbent solution
Variable Name           Solution Value
Cmax                        300.000000
X_1_27                        1.000000
X_2_28                        1.000000
X_3_35                        1.000000
X_4_29                        1.000000
X_5_4                         1.000000
X_6_8                         1.000000
X_7_21                        1.000000
X_8_13                        1.000000
X_9_2                         1.000000
X_10_18                       1.000000
X_11_4                        1.000000
X_12_31                       1.000000
X_13_13                       1.000000
X_14_38                       1.000000
X_15_20                       1.000000
X_16_26                       1.000000
X_17_23                       1.000000
X_18_7                        1.000000
X_19_25                       1.000000
X_20_13                       1.000000
X_21_5                        1.000000
X_22_14                       1.000000
X_23_6                        1.000000
X_24_33                       1.000000
X_25_22                       1.000000
X_26_9                        1.000000
X_27_6                        1.000000
X_28_5                        1.000000
X_29_21                       1.000000
X_30_24                       1.000000
X_31_40                       1.000000
X_32_36                       1.000000
X_33_31                       1.000000
X_34_36                       1.000000
X_35_22                       1.000000
X_36_11                       1.000000
X_37_37                       1.000000
X_38_8                        1.000000
X_39_14                       1.000000
X_40_32                       1.000000
X_41_36                       1.000000
X_42_11                       1.000000
X_43_25                       1.000000
X_44_37                       1.000000
X_45_1                        1.000000
X_46_3                        1.000000
X_47_10                       1.000000
X_48_30                       1.000000
X_49_28                       1.000000
X_50_27                       1.000000
X_51_37                       1.000000
X_52_17                       1.000000
X_53_30                       1.000000
X_54_12                       1.000000
X_55_21                       1.000000
X_56_23                       1.000000
X_57_33                       1.000000
X_58_16                       1.000000
X_59_17                       1.000000
X_60_7                        1.000000
X_61_24                       1.000000
X_62_27                       1.000000
X_63_2                        1.000000
X_64_40                       1.000000
X_65_8                        1.000000
X_66_34                       1.000000
X_67_12                       1.000000
X_68_1                        1.000000
X_69_18                       1.000000
X_70_32                       1.000000
X_71_32                       1.000000
X_72_18                       1.000000
X_73_17                       1.000000
X_74_3                        1.000000
X_75_20                       1.000000
X_76_40                       1.000000
X_77_16                       1.000000
X_78_10                       1.000000
X_79_15                       1.000000
X_80_15                       1.000000
X_81_3                        1.000000
X_82_26                       1.000000
X_83_39                       1.000000
X_84_35                       1.000000
X_85_30                       1.000000
X_86_34                       1.000000
X_87_23                       1.000000
X_88_29                       1.000000
X_89_10                       1.000000
X_90_15                       1.000000
X_91_19                       1.000000
X_92_39                       1.000000
X_93_19                       1.000000
X_94_16                       1.000000
X_95_4                        1.000000
X_96_20                       1.000000
X_97_38                       1.000000
X_98_29                       1.000000
X_99_9                        1.000000
X_100_12                      1.000000
All other variables in the range 1-4001 are 0.
